30
1 0 108
2 0 104
2 1 54
3 0 86
3 1 70
3 2 99
4 0 7
4 1 81
4 2 39
4 3 57
5 0 49
5 1 15
5 2 12
5 3 73
5 4 72
6 0 100
6 1 65
6 2 101
6 3 85
6 4 46
6 5 106
7 0 96
7 1 96
7 2 107
7 3 4
7 4 14
7 5 98
7 6 26
8 0 81
8 1 95
8 2 84
8 3 79
8 4 112
8 5 70
8 6 4
8 7 59
9 0 120
9 1 40
9 2 15
9 3 103
9 4 103
9 5 47
9 6 46
9 7 102
9 8 115
10 0 70
10 1 42
10 2 95
10 3 47
10 4 47
10 5 92
10 6 7
10 7 5
10 8 35
10 9 53
11 0 112
11 1 90
11 2 47
11 3 120
11 4 50
11 5 42
11 6 99
11 7 72
11 8 104
11 9 30
11 10 63
12 0 22
12 1 110
12 2 99
12 3 52
12 4 12
12 5 20
12 6 106
12 7 11
12 8 100
12 9 52
12 10 104
12 11 38
13 0 44
13 1 77
13 2 76
13 3 49
13 4 52
13 5 76
13 6 114
13 7 110
13 8 67
13 9 56
13 10 3
13 11 23
13 12 93
14 0 119
14 1 88
14 2 119
14 3 35
14 4 90
14 5 44
14 6 120
14 7 75
14 8 61
14 9 6
14 10 2
14 11 107
14 12 116
14 13 20
15 0 15
15 1 30
15 2 58
15 3 47
15 4 28
15 5 95
15 6 93
15 7 34
15 8 67
15 9 30
15 10 1
15 11 44
15 12 16
15 13 53
15 14 88
16 0 38
16 1 51
16 2 27
16 3 67
16 4 71
16 5 63
16 6 46
16 7 56
16 8 77
16 9 62
16 10 96
16 11 33
16 12 65
16 13 6
16 14 96
16 15 75
17 0 81
17 1 29
17 2 54
17 3 42
17 4 103
17 5 38
17 6 32
17 7 39
17 8 107
17 9 83
17 10 80
17 11 5
17 12 77
17 13 51
17 14 118
17 15 54
17 16 115
18 0 20
18 1 118
18 2 111
18 3 17
18 4 19
18 5 19
18 6 41
18 7 80
18 8 88
18 9 33
18 10 79
18 11 56
18 12 64
18 13 109
18 14 48
18 15 120
18 16 37
18 17 114
19 0 3
19 1 88
19 2 5
19 3 40
19 4 7
19 5 117
19 6 93
19 7 55
19 8 58
19 9 13
19 10 31
19 11 9
19 12 81
19 13 74
19 14 69
19 15 69
19 16 120
19 17 53
19 18 9
20 0 120
20 1 98
20 2 85
20 3 45
20 4 15
20 5 51
20 6 86
20 7 43
20 8 61
20 9 47
20 10 85
20 11 28
20 12 50
20 13 7
20 14 3
20 15 34
20 16 100
20 17 35
20 18 46
20 19 89
21 0 14
21 1 100
21 2 65
21 3 114
21 4 119
21 5 90
21 6 77
21 7 91
21 8 106
21 9 84
21 10 100
21 11 95
21 12 97
21 13 34
21 14 11
21 15 13
21 16 43
21 17 68
21 18 32
21 19 30
21 20 58
22 0 49
22 1 96
22 2 101
22 3 2
22 4 55
22 5 89
22 6 22
22 7 36
22 8 91
22 9 91
22 10 56
22 11 32
22 12 37
22 13 60
22 14 72
22 15 101
22 16 20
22 17 61
22 18 89
22 19 59
22 20 102
22 21 37
23 0 12
23 1 45
23 2 10
23 3 72
23 4 56
23 5 41
23 6 25
23 7 75
23 8 79
23 9 89
23 10 104
23 11 11
23 12 98
23 13 106
23 14 72
23 15 27
23 16 15
23 17 47
23 18 69
23 19 106
23 20 76
23 21 11
23 22 83
24 0 94
24 1 117
24 2 112
24 3 63
24 4 27
24 5 40
24 6 19
24 7 12
24 8 112
24 9 110
24 10 98
24 11 38
24 12 107
24 13 91
24 14 18
24 15 65
24 16 28
24 17 80
24 18 74
24 19 90
24 20 72
24 21 67
24 22 57
24 23 15
25 0 73
25 1 68
25 2 36
25 3 14
25 4 18
25 5 75
25 6 83
25 7 32
25 8 98
25 9 54
25 10 24
25 11 47
25 12 86
25 13 4
25 14 20
25 15 97
25 16 31
25 17 28
25 18 118
25 19 100
25 20 109
25 21 113
25 22 4
25 23 82
25 24 101
26 0 105
26 1 28
26 2 54
26 3 1
26 4 17
26 5 2
26 6 101
26 7 25
26 8 1
26 9 14
26 10 107
26 11 108
26 12 59
26 13 66
26 14 89
26 15 6
26 16 103
26 17 73
26 18 27
26 19 28
26 20 114
26 21 92
26 22 117
26 23 86
26 24 2
26 25 101
27 0 9
27 1 34
27 2 72
27 3 95
27 4 75
27 5 114
27 6 44
27 7 119
27 8 86
27 9 2
27 10 25
27 11 105
27 12 80
27 13 111
27 14 101
27 15 34
27 16 62
27 17 107
27 18 95
27 19 106
27 20 12
27 21 44
27 22 56
27 23 66
27 24 35
27 25 94
27 26 85
28 0 67
28 1 16
28 2 3
28 3 12
28 4 106
28 5 3
28 6 86
28 7 91
28 8 20
28 9 13
28 10 25
28 11 65
28 12 107
28 13 67
28 14 93
28 15 99
28 16 119
28 17 59
28 18 80
28 19 39
28 20 117
28 21 68
28 22 79
28 23 63
28 24 10
28 25 69
28 26 62
28 27 98
29 0 32
29 1 66
29 2 61
29 3 41
29 4 108
29 5 32
29 6 74
29 7 11
29 8 69
29 9 11
29 10 54
29 11 104
29 12 36
29 13 66
29 14 96
29 15 9
29 16 120
29 17 14
29 18 34
29 19 57
29 20 32
29 21 11
29 22 85
29 23 49
29 24 61
29 25 61
29 26 113
29 27 5
29 28 13
